proyfinal/src/viki/013/andrea/andrea-localstore/experimentInOfficeAgust.take6/worker_2/8e097e70-b385-4fc2-b80b-cf157c1f9a92.als.cnf.out
Reading from standard input... Use '--help' for help.
============================[ Problem Statistics ]=============================
|                                                                             |
|  Number of variables:         87638                                         |
|  Number of clauses:          161767                                         |
|  Parse time:                   0.04 s                                       |
|                                                                             |
============================[ Search Statistics ]==============================
| Conflicts |          ORIGINAL         |          LEARNT          | Progress |
|           |    Vars  Clauses Literals |    Limit  Clauses Lit/Cl |          |
===============================================================================
|       100 |   63910   110631   276512 |    40564      100     14 | 27.075 % |
|       250 |   63910   110631   276512 |    44621      250     20 | 27.075 % |
|       475 |   63910   110631   276512 |    49083      475     74 | 27.075 % |
|       812 |   63910   110631   276512 |    53991      812     81 | 27.075 % |
|      1318 |   63910   110631   276512 |    59390     1318     81 | 27.075 % |
|      2077 |   53778    80975   203566 |    65329     2053     82 | 38.636 % |
|      3216 |   53706    80557   202593 |    71862     3187     66 | 38.718 % |
|      4924 |   53655    80295   202035 |    79049     4882     69 | 38.777 % |
|      7486 |   53224    79447   199977 |    86954     7286     71 | 39.268 % |
|     11330 |   52951    77639   195485 |    95649    11076     69 | 39.580 % |
|     17096 |   52404    75698   190733 |   105214    15903     67 | 40.204 % |
===============================================================================
restarts              : 70
conflicts             : 20421          (7129 /sec)
decisions             : 75530          (0.00 % random) (26367 /sec)
propagations          : 31631792       (11042607 /sec)
conflict literals     : 1319785        (44.96 % deleted)
Memory used           : 31.80 MB
CPU time              : 2.86452 s

INDETERMINATE
